40 40
52 76 1
100 65 1
4 43 1
89 2 1
83 61 1
70 66 1
90 84 1
60 58 1
83 9 1
68 29 1
39 91 1
99 77 1
29 18 1
98 53 1
48 2 1
100 8 1
45 92 1
53 89 1
79 29 1
60 100 1
71 71 1
80 37 1
52 66 1
84 52 1
60 64 1
50 47 1
98 17 1
69 68 1
61 70 1
41 78 1
3 85 1
66 95 1
73 88 1
94 100 1
80 1 1
74 83 1
97 66 1
57 95 1
50 86 1
95 84 1
100 100 
100 100 
100 100 
100 100 
100 100 
100 100 
100 100 
100 100 
100 100 
100 100 
100 100 
100 100 
100 100 
100 100 
100 100 
100 100 
100 100 
100 100 
100 100 
100 100 
100 100 
100 100 
100 100 
100 100 
100 100 
100 100 
100 100 
100 100 
100 100 
100 100 
100 100 
100 100 
100 100 
100 100 
100 100 
100 100 
100 100 
100 100 
100 100 
100 100 
